objective value:                                  480
sq1_0_0_10                                          1 	(obj:10)
sq1_0_1_36                                          1 	(obj:36)
sq1_0_2_25                                          1 	(obj:25)
sq1_1_0_38                                          1 	(obj:38)
sq1_1_1_24                                          1 	(obj:24)
sq2_0_0_3                                           1 	(obj:3)
sq2_0_1_23                                          1 	(obj:23)
sq2_0_2_11                                          1 	(obj:11)
sq2_1_0_20                                          1 	(obj:20)
sq2_1_1_13                                          1 	(obj:13)
sq2_2_0_14                                          1 	(obj:14)
sq2_2_1_2                                           1 	(obj:2)
sq3_0_0_9                                           1 	(obj:9)
sq3_0_1_27                                          1 	(obj:27)
sq3_0_2_26                                          1 	(obj:26)
sq3_1_0_37                                          1 	(obj:37)
sq3_1_1_21                                          1 	(obj:21)
sq3_1_2_5                                           1 	(obj:5)
sq3_2_2_32                                          1 	(obj:32)
sq4_0_0_4                                           1 	(obj:4)
sq4_0_1_16                                          1 	(obj:16)
sq4_0_2_15                                          1 	(obj:15)
sq4_1_0_22                                          1 	(obj:22)
sq4_1_1_12                                          1 	(obj:12)
sq4_1_2_1                                           1 	(obj:1)
sq4_2_0_8                                           1 	(obj:8)
sq4_2_1_7                                           1 	(obj:7)
sq4_2_2_19                                          1 	(obj:19)
magic1                                             72 	(obj:0)
magic2                                             38 	(obj:0)
magic3                                             63 	(obj:0)
magic4                                             35 	(obj:0)
